Crystal
1.0
4.073373499 	 0.000000000 	 0.000000000
0.000000000 	 4.193228426 	 0.000000000
0.000000000 	 0.000000000 	 20.000000000
   Sn  S   
   2  2   
Selective Dynamics
Direct
0.250000000  0.093576236  -0.069550789  T  T  T  # Sn 
0.750000000  0.593577407  0.069550789  T  T  T  # Sn 
0.750000000  0.536958929  -0.058956264  T  T  T  # S 
0.250000000  0.036957505  0.058956264  T  T  T  # S 
